3334.0 93631.0 
3199.0 98169.0 
3242.0 95413.0 
3334.0 93631.0 
3301.0 94270.0 
3266.0 94983.0 
3222.0 96329.0 
3449.0 92818.0 
3344.0 93195.0 
3207.0 96620.0 
3396.0 92927.0 
3270.0 94789.0 
3385.0 93158.0 
3320.0 94045.0 
